NAME: rue_20_5
TYPE: TSP
DIMENSION: 20
EDGE_WEIGHT_TYPE: EUC_2D
NODE_COORD_SECTION
1 49 7
2 97 21
3 12 44
4 34 32
5 95 50
6 5 86
7 71 42
8 71 65
9 23 7
10 6 20
11 3 3
12 96 80
13 72 31
14 69 36
15 79 27
16 36 61
17 93 67
18 92 77
19 27 97
20 91 68
